c Sudoku solution
p cnf 729 0
144 0
198 0
251 0
266 0
273 0
312 0
324 0
355 0
396 0
459 0
531 0
545 0
626 0
639 0
688 0
691 0
752 0
813 0
871 0
381 0
886 0
895 0
936 0
746 0
116 0
121 0
556 0
476 0
958 0
778 0
984 0
294 0
993 0
972 0
763 0
965 0
941 0
711 0
734 0
725 0
461 0
414 0
517 0
615 0
485 0
583 0
919 0
927 0
218 0
229 0
423 0
175 0
235 0
242 0
182 0
287 0
379 0
169 0
662 0
849 0
677 0
574 0
492 0
599 0
438 0
522 0
447 0
643 0
654 0
568 0
828 0
832 0
153 0
137 0
333 0
348 0
367 0
857 0
864 0
789 0
797 0
